1963, 0, 0, 47, 3
1964, 0, 1, 51, 0
1965, 0, 2, 43, 1
1966, 0, 3, 61, 2
1967, 1, 0, 99, 2
1968, 1, 1, 74, 0
1969, 1, 2, 36, 3
1970, 1, 3, 85, 1
1971, 2, 0, 84, 1
1972, 2, 1, 72, 0
1973, 2, 2, 74, 3
1974, 2, 3, 81, 2
1975, 3, 0, 57, 2
1976, 3, 1, 68, 0
1977, 3, 2, 33, 3
1978, 3, 3, 47, 1